c This Formular is generated by mcnf
c
c    horn? no 
c    forced? no 
c    mixed sat? no 
c    clause length = 3 
c
p cnf 50  218
-1 -2 -11 0
-12 0
-3 0
2 -2 -2 0
2 -2 -12 0
2 -2 13 0
2 12 -2 0
2 12 -12 0
2 12 13 0
2 -13 -2 0
2 -13 -12 0
2 -13 13 0
-12 -2 -2 0
-12 -2 -12 0
-12 -2 13 0
-12 12 -2 0
-12 12 -12 0
-12 12 13 0
-12 -13 -2 0
-12 -13 -12 0
-12 -13 13 0
-13 -2 -20 0
-13 -2 -12 0
-13 -2 13 0
-13 12 -2 0
-13 12 -12 0
-13 12 13 0
-13 -13 -2 0
-13 -13 -12 0
-13 -13 13 0
-21 0
11 -11 -11 0
11 -11 -12 0
11 -11 22 0
11 12 -11 0
11 12 -12 0
11 12 22 0
11 -22 -11 0
11 -22 -12 0
11 -22 22 0
-12 -11 -11 0
-12 -11 -12 0
-12 -11 22 0
-12 12 -11 0
-12 12 -12 0
-12 12 22 0
-12 -22 -11 0
-12 -22 -12 0
-12 -22 22 0
-22 -11 -11 0
-22 -11 -12 0
-22 -11 22 0
-22 12 -11 0
-22 12 -12 0
-22 12 22 0
-22 -22 -11 0
-22 -22 -12 0
-22 -22 22 0
-23 0
12 12 -12 0
12 12 13 0
12 12 22 0
12 -13 -12 0
12 -13 13 0
12 -13 22 0
12 22 -12 0
12 22 13 0
12 22 22 0
13 12 -12 0
13 12 13 0
13 12 22 0
13 -13 -12 0
13 -13 13 0
13 -13 22 0
13 22 -12 0
13 22 13 0
13 22 22 0
-22 12 -12 0
-22 12 13 0
-22 12 22 0
-22 -13 -12 0
-22 -13 13 0
-22 -13 22 0
-22 22 -12 0
-22 22 13 0
-22 22 22 0
%
0

